language ESSENCE' 1.0

letting jobs = 102
letting horizon = 810
letting resourcesRenew = 2
letting resourcesNonrenew = 2
letting resourceLimits = [62, 53, 303, 230]
letting successors = [[2, 3, 4, 5, 6, 8, 9, 10, 11, 12, 13, 14, 15, 16, 17, 18, 21, 23, 28, 33, 35], [49, 32, 29, 27, 26, 22, 7], [52, 44, 41, 39, 38, 37, 34, 30, 29, 27, 26, 22], [52, 50, 49, 46, 44, 42, 41, 38, 37, 36, 30, 29, 22], [64, 52, 50, 49, 46, 45, 37, 32, 31, 29, 26], [74, 53, 49, 46, 43, 39, 37, 29, 27, 20], [64, 46, 43, 38, 37, 34, 31, 30, 25], [49, 45, 38, 37, 36, 29, 26, 19], [64, 53, 51, 45, 44, 43, 41, 37, 34, 26], [74, 61, 57, 52, 49, 45, 42, 41, 38, 37, 36, 30], [57, 53, 52, 47, 45, 44, 43, 41, 37, 34, 29], [64, 53, 50, 43, 37, 31, 29, 26], [64, 53, 50, 47, 46, 45, 44, 43, 41, 38, 29], [74, 54, 52, 51, 45, 44, 43, 42, 41, 40, 30], [74, 64, 52, 49, 44, 43, 41, 24], [61, 57, 54, 52, 51, 49, 45, 42, 41, 30], [77, 74, 73, 64, 63, 62, 61, 59, 57, 55, 54, 53, 51, 50, 49, 48, 47, 45], [59, 56, 50, 43, 39, 38, 26], [74, 73, 68, 66, 57, 54, 53, 51, 48, 46, 44, 41], [73, 64, 60, 48, 47, 45, 44, 41, 38], [59, 56, 53, 51, 49, 43, 31], [77, 74, 73, 68, 65, 64, 63, 61, 59, 57, 54, 45, 43], [62, 56, 55, 52, 49, 32], [61, 59, 57, 54, 47, 42, 37], [74, 72, 61, 58, 56, 53, 52, 47, 41], [83, 77, 74, 63, 61, 58, 57, 54, 47, 42], [83, 77, 73, 68, 65, 59, 56, 54, 51, 42], [77, 73, 66, 65, 63, 60, 58, 50, 48, 41], [101, 99, 83, 77, 76, 73, 71, 69, 68, 66, 65, 62, 61, 59, 55, 54, 51], [83, 73, 72, 69, 63, 62, 59, 58, 56, 55, 53, 47], [84, 73, 68, 67, 66, 65, 58, 57, 54, 44], [84, 83, 73, 63, 58, 54, 53, 48, 47], [84, 83, 77, 67, 66, 63, 61, 60, 58, 57, 55, 48], [76, 74, 68, 67, 66, 65, 60, 59, 55, 50, 48], [101, 99, 84, 83, 82, 77, 75, 72, 71, 69, 68, 67, 66, 65, 63, 62, 60, 57], [101, 98, 84, 83, 76, 72, 71, 70, 69, 65, 63, 58, 56, 54], [100, 83, 77, 73, 70, 67, 62, 60, 58, 56, 48], [101, 99, 98, 76, 72, 66, 65, 62, 55, 51], [99, 98, 83, 82, 76, 71, 69, 66, 63, 62, 60, 55], [101, 98, 97, 82, 77, 76, 71, 70, 69, 67, 65, 56], [99, 82, 76, 71, 69, 67, 62, 59, 55], [84, 76, 75, 70, 66, 62, 48], [94, 76, 75, 67, 62, 48], [101, 99, 98, 97, 94, 93, 91, 83, 82, 80, 79, 77, 75, 70, 69, 63, 61], [100, 90, 83, 82, 81, 76, 72, 71, 70, 56], [99, 98, 82, 70, 69, 65, 62, 60, 58], [100, 95, 94, 92, 91, 80, 79, 75, 70, 68, 67, 65], [101, 99, 98, 96, 91, 90, 89, 82, 80, 79, 72, 71, 69], [101, 96, 95, 94, 93, 92, 91, 80, 79, 75, 72, 68, 67], [101, 100, 98, 97, 95, 93, 91, 90, 84, 83, 81, 80, 72, 70], [93, 82, 78, 67, 58], [101, 98, 97, 95, 94, 92, 91, 83, 80, 79, 77, 67], [99, 98, 91, 82, 81, 76, 60], [100, 91, 90, 87, 82, 80, 60], [100, 94, 91, 90, 80, 79, 78, 75, 70], [99, 96, 92, 91, 80, 75, 66], [100, 96, 94, 92, 91, 90, 88, 85, 80, 79, 76], [97, 96, 95, 94, 91, 90, 89, 88, 85, 80, 79], [95, 91, 90, 85, 84, 80, 78], [97, 96, 93, 92, 89, 88, 85, 79], [100, 95, 92, 90, 88, 86, 85, 78], [97, 96, 91, 88, 86, 85, 78], [90, 89, 88, 86, 85, 81, 78], [98, 93, 90, 89, 85, 81, 78], [93, 89, 88, 86, 85, 78], [94, 89, 85, 79, 78], [90, 88, 86, 85, 81], [98, 90, 88, 87, 85], [92, 88, 85, 78], [89, 88, 87, 86], [95, 93, 86, 85], [88, 85, 78], [97, 88, 79], [94, 90, 85], [87, 85], [89, 86], [89, 88], [87], [86], [86], [87], [92], [87], [88], [102], [102], [102], [102], [102], [102], [102], [102], [102], [102], [102], [102], [102], [102], [102], [102], [102], []]
letting durations = [[0], [4, 7, 9], [4, 5, 9], [2, 4, 8], [3, 8, 9], [6, 6, 7], [2, 4, 10], [2, 7, 9], [2, 7, 8], [4, 7, 9], [5, 8, 9], [1, 5, 7], [5, 6, 7], [5, 6, 8], [1, 2, 8], [1, 9, 10], [1, 3, 6], [3, 6, 6], [1, 2, 4], [3, 7, 9], [4, 5, 8], [7, 10, 10], [2, 3, 7], [4, 6, 10], [1, 6, 9], [2, 6, 10], [3, 10, 10], [4, 4, 9], [1, 8, 10], [6, 7, 9], [2, 8, 9], [4, 7, 8], [4, 5, 6], [1, 2, 7], [3, 4, 9], [3, 5, 10], [6, 7, 10], [2, 8, 9], [3, 6, 6], [2, 4, 8], [3, 3, 8], [4, 4, 7], [5, 7, 9], [5, 7, 8], [3, 4, 5], [6, 8, 10], [2, 3, 3], [3, 4, 5], [3, 9, 9], [2, 3, 9], [2, 2, 3], [6, 7, 8], [4, 4, 9], [1, 9, 10], [2, 2, 8], [2, 3, 4], [4, 9, 10], [3, 4, 8], [2, 5, 9], [3, 5, 10], [4, 8, 9], [3, 8, 10], [4, 5, 10], [1, 5, 9], [5, 6, 9], [1, 1, 4], [1, 2, 3], [1, 9, 10], [8, 10, 10], [4, 5, 10], [4, 8, 8], [1, 4, 5], [2, 3, 5], [1, 4, 5], [6, 9, 9], [2, 8, 10], [4, 5, 8], [1, 5, 7], [3, 4, 10], [2, 3, 5], [5, 8, 9], [2, 4, 10], [6, 7, 9], [4, 7, 8], [3, 4, 10], [2, 3, 6], [3, 8, 10], [1, 3, 8], [1, 1, 5], [1, 3, 3], [9, 9, 10], [1, 7, 10], [2, 9, 10], [3, 5, 8], [2, 4, 10], [4, 7, 10], [2, 2, 10], [2, 6, 8], [1, 4, 8], [2, 5, 7], [1, 4, 7], [0]]
letting resourceUsage = [[[0, 0, 0, 0]], [[3, 4, 0, 1], [2, 3, 0, 1], [2, 1, 0, 1]], [[3, 5, 9, 0], [2, 4, 7, 0], [2, 3, 0, 2]], [[5, 3, 2, 0], [3, 2, 2, 0], [2, 2, 0, 7]], [[4, 3, 9, 0], [3, 2, 0, 5], [2, 1, 8, 0]], [[4, 3, 0, 6], [3, 2, 7, 0], [3, 2, 0, 2]], [[3, 1, 5, 0], [3, 1, 0, 8], [1, 1, 0, 7]], [[4, 4, 5, 0], [3, 4, 5, 0], [3, 3, 0, 3]], [[4, 4, 10, 0], [4, 2, 9, 0], [4, 2, 8, 0]], [[5, 3, 6, 0], [4, 3, 3, 0], [4, 3, 2, 0]], [[4, 4, 0, 7], [3, 4, 0, 5], [3, 3, 0, 5]], [[4, 2, 10, 0], [3, 2, 7, 0], [3, 1, 7, 0]], [[5, 1, 0, 6], [4, 1, 0, 4], [3, 1, 4, 0]], [[3, 4, 0, 7], [2, 4, 6, 0], [1, 4, 4, 0]], [[4, 3, 3, 0], [3, 2, 0, 4], [1, 2, 0, 3]], [[2, 2, 4, 0], [2, 2, 2, 0], [2, 2, 1, 0]], [[4, 2, 8, 0], [2, 1, 0, 4], [2, 1, 6, 0]], [[3, 3, 0, 8], [3, 1, 0, 6], [3, 1, 5, 0]], [[2, 3, 5, 0], [2, 2, 0, 5], [2, 1, 0, 5]], [[3, 1, 0, 9], [2, 1, 3, 0], [2, 1, 2, 0]], [[5, 2, 0, 6], [4, 2, 0, 4], [3, 2, 4, 0]], [[5, 1, 6, 0], [3, 1, 0, 6], [2, 1, 4, 0]], [[5, 3, 7, 0], [5, 3, 6, 0], [5, 2, 5, 0]], [[2, 5, 0, 4], [1, 4, 0, 3], [1, 4, 2, 0]], [[2, 3, 8, 0], [2, 2, 6, 0], [2, 2, 0, 4]], [[5, 4, 8, 0], [4, 4, 0, 9], [4, 3, 0, 9]], [[5, 4, 8, 0], [3, 3, 6, 0], [3, 2, 0, 4]], [[3, 5, 0, 7], [3, 4, 4, 0], [3, 4, 0, 7]], [[3, 5, 8, 0], [3, 4, 0, 3], [2, 3, 0, 2]], [[4, 2, 6, 0], [3, 1, 5, 0], [1, 1, 4, 0]], [[1, 3, 9, 0], [1, 2, 0, 4], [1, 2, 0, 3]], [[3, 3, 5, 0], [2, 2, 5, 0], [2, 1, 0, 5]], [[4, 5, 0, 5], [4, 4, 7, 0], [4, 3, 7, 0]], [[5, 5, 0, 10], [3, 3, 0, 6], [3, 2, 0, 2]], [[4, 4, 8, 0], [3, 4, 0, 6], [2, 4, 8, 0]], [[4, 4, 7, 0], [2, 4, 6, 0], [2, 4, 0, 2]], [[5, 4, 6, 0], [3, 4, 0, 7], [3, 4, 2, 0]], [[5, 3, 0, 2], [5, 3, 4, 0], [5, 3, 3, 0]], [[1, 4, 10, 0], [1, 4, 0, 5], [1, 4, 9, 0]], [[5, 2, 5, 0], [3, 2, 0, 5], [2, 1, 0, 5]], [[3, 3, 0, 3], [3, 2, 1, 0], [3, 1, 0, 2]], [[3, 3, 0, 9], [3, 2, 9, 0], [3, 1, 0, 7]], [[4, 2, 8, 0], [3, 2, 0, 3], [3, 2, 0, 2]], [[4, 3, 0, 10], [2, 2, 8, 0], [2, 1, 0, 3]], [[5, 3, 0, 5], [5, 2, 5, 0], [5, 1, 0, 5]], [[5, 1, 8, 0], [5, 1, 6, 0], [5, 1, 0, 6]], [[3, 3, 0, 7], [3, 2, 0, 6], [2, 2, 2, 0]], [[4, 3, 7, 0], [3, 3, 6, 0], [3, 3, 0, 6]], [[4, 1, 0, 9], [3, 1, 0, 7], [2, 1, 3, 0]], [[2, 4, 8, 0], [2, 3, 7, 0], [2, 3, 0, 3]], [[5, 3, 2, 0], [5, 3, 0, 3], [5, 2, 0, 2]], [[3, 3, 0, 7], [3, 3, 0, 6], [3, 2, 0, 3]], [[4, 4, 7, 0], [3, 3, 0, 2], [2, 1, 0, 2]], [[5, 4, 3, 0], [3, 4, 0, 2], [3, 4, 3, 0]], [[2, 3, 9, 0], [1, 3, 0, 4], [1, 3, 0, 3]], [[4, 3, 4, 0], [4, 2, 4, 0], [4, 1, 3, 0]], [[2, 3, 8, 0], [2, 3, 0, 4], [1, 2, 0, 4]], [[3, 4, 7, 0], [1, 2, 4, 0], [1, 2, 3, 0]], [[4, 3, 2, 0], [2, 2, 2, 0], [2, 2, 1, 0]], [[5, 5, 0, 8], [4, 5, 7, 0], [4, 5, 0, 8]], [[4, 4, 3, 0], [4, 3, 3, 0], [4, 2, 3, 0]], [[3, 3, 0, 7], [2, 1, 4, 0], [2, 1, 0, 3]], [[3, 4, 0, 8], [3, 2, 7, 0], [3, 2, 3, 0]], [[3, 1, 0, 4], [2, 1, 2, 0], [2, 1, 0, 1]], [[4, 4, 0, 4], [4, 3, 0, 4], [3, 3, 8, 0]], [[5, 3, 2, 0], [3, 3, 0, 7], [3, 2, 0, 5]], [[2, 3, 0, 6], [2, 3, 3, 0], [2, 1, 3, 0]], [[5, 5, 9, 0], [3, 4, 9, 0], [3, 3, 0, 3]], [[3, 3, 6, 0], [2, 3, 0, 5], [2, 1, 2, 0]], [[3, 3, 6, 0], [2, 3, 5, 0], [2, 2, 0, 3]], [[5, 1, 0, 7], [3, 1, 4, 0], [2, 1, 0, 6]], [[1, 3, 3, 0], [1, 2, 0, 6], [1, 2, 0, 5]], [[4, 4, 0, 8], [4, 4, 0, 5], [3, 2, 2, 0]], [[4, 5, 5, 0], [4, 4, 0, 2], [4, 2, 2, 0]], [[3, 5, 10, 0], [3, 5, 0, 3], [3, 5, 9, 0]], [[2, 4, 3, 0], [1, 2, 1, 0], [1, 1, 0, 2]], [[4, 4, 10, 0], [4, 4, 9, 0], [4, 4, 8, 0]], [[5, 4, 3, 0], [4, 3, 3, 0], [4, 2, 0, 2]], [[5, 4, 7, 0], [4, 3, 0, 5], [4, 3, 0, 2]], [[4, 3, 7, 0], [3, 3, 6, 0], [3, 3, 0, 2]], [[5, 2, 7, 0], [4, 2, 7, 0], [4, 2, 0, 1]], [[5, 5, 7, 0], [3, 2, 6, 0], [2, 1, 0, 4]], [[4, 2, 0, 9], [3, 1, 0, 6], [3, 1, 3, 0]], [[4, 3, 0, 5], [2, 2, 6, 0], [2, 1, 4, 0]], [[4, 2, 0, 4], [2, 2, 3, 0], [2, 2, 0, 4]], [[4, 3, 3, 0], [4, 3, 2, 0], [4, 3, 0, 4]], [[4, 4, 8, 0], [4, 4, 7, 0], [4, 4, 6, 0]], [[1, 4, 9, 0], [1, 4, 8, 0], [1, 3, 8, 0]], [[4, 5, 0, 10], [3, 5, 1, 0], [2, 5, 0, 10]], [[3, 1, 9, 0], [2, 1, 8, 0], [2, 1, 0, 5]], [[1, 4, 7, 0], [1, 4, 0, 1], [1, 4, 6, 0]], [[3, 2, 0, 5], [3, 1, 0, 2], [2, 1, 6, 0]], [[2, 4, 0, 5], [1, 4, 0, 5], [1, 4, 0, 4]], [[1, 4, 7, 0], [1, 3, 0, 4], [1, 2, 0, 4]], [[4, 5, 0, 2], [4, 4, 0, 2], [4, 4, 2, 0]], [[3, 1, 2, 0], [3, 1, 0, 4], [3, 1, 0, 3]], [[1, 4, 5, 0], [1, 3, 0, 3], [1, 3, 0, 2]], [[1, 3, 0, 10], [1, 2, 8, 0], [1, 2, 7, 0]], [[5, 3, 0, 5], [3, 3, 0, 3], [3, 3, 0, 2]], [[3, 3, 9, 0], [2, 3, 0, 6], [2, 3, 0, 5]], [[4, 4, 6, 0], [3, 3, 5, 0], [2, 2, 0, 6]], [[0, 0, 0, 0]]]
